NAME : rnd9_50.tsp
TYPE : TSP
DIMENSION : 50
EDGE_WEIGHT_TYPE : EUC_2D
NODE_COORD_SECTION
1 650 408
2 1 6
3 847 251
4 425 657
5 90 330
6 550 805
7 860 596
8 347 204
9 902 365
10 497 103
11 643 605
12 343 848
13 728 450
14 244 757
15 946 745
16 343 113
17 247 473
18 479 367
19 307 578
20 555 676
21 591 177
22 343 386
23 256 832
24 541 803
25 901 211
26 406 448
27 486 967
28 490 173
29 615 644
30 933 544
31 900 604
32 922 681
33 24 923
34 49 685
35 820 561
36 525 852
37 631 464
38 336 933
39 688 435
40 381 125
41 128 823
42 748 535
43 256 453
44 695 737
45 420 502
46 95 31
47 107 358
48 316 452
49 531 416
50 779 688
